InboundTrucks  = 12;
OutboundTrucks = 8;
InboundDoors   = 4;
OutboundDoors  = 4;
ReleaseTime    = [81,14,3,94,35,31,28,17,94,13,86,94];
UnloadTime     = [44,15,37,12,11,15,23,24,42,11,45,22];
LoadTime       = [27,25,27,22,18,12,19,23];
TransferTime   = [| 0,17,0,28,50,0,0,0 | 14,12,24,0,15,0,0,0 | 0,0,0,32,0,27,14,48 | 0,0,0,39,0,50,45,24 | 30,0,24,0,30,0,0,0 | 30,23,41,0,0,0,0,0 | 44,26,0,0,0,0,0,0 | 42,41,0,0,0,0,0,0 | 0,0,0,39,0,45,10,0 | 0,0,0,31,0,0,20,0 | 0,0,0,0,0,50,29,50 | 0,0,0,0,0,0,10,0 |];
